NAME          
ROWS
 N  OBJ
 L  c1
 L  c2
 L  c3
 L  c4
 L  c5
 L  c6
 L  c7
 L  c8
 L  c9
 L  c10
 L  c11
 L  c12
 L  c13
 L  c14
 L  c15
 L  c16
 L  c17
 L  c18
 L  c19
 L  c20
 L  c21
 L  c22
 L  c23
 L  c24
 L  c25
 L  c26
 L  c27
 L  c28
 L  c29
 L  c30
 L  c31
 L  c32
 L  c33
 L  c34
 L  c35
 L  c36
 L  c37
 L  c38
 L  c39
 L  c40
 L  c41
 L  c42
 L  c43
 L  c44
 L  c45
 L  c46
 L  c47
 L  c48
 L  c49
 L  c50
 L  c51
 L  c52
 L  c53
 L  c54
 L  c55
 L  c56
 L  c57
 L  c58
 L  c59
 L  c60
 L  c61
 L  c62
 L  c63
 L  c64
 L  c65
 L  c66
 L  c67
 L  c68
 L  c69
 L  c70
 L  c71
 L  c72
 L  c73
 L  c74
 L  c75
 L  c76
 L  c77
 L  c78
 L  c79
 L  c80
 L  c81
 L  c82
 L  c83
 L  c84
 L  c85
 L  c86
 L  c87
 L  c88
 L  c89
 L  c90
 L  c91
 L  c92
 L  c93
 L  c94
 L  c95
 L  c96
 L  c97
 L  c98
 L  c99
 L  c100
 L  c101
 L  c102
 L  c103
 L  c104
 L  c105
 L  c106
 L  c107
 L  c108
 L  c109
 L  c110
 L  c111
 L  c112
 L  c113
 L  c114
 L  c115
 L  c116
 L  c117
 L  c118
 L  c119
 L  c120
 L  c121
 L  c122
 L  c123
 L  c124
 L  c125
 L  c126
 L  c127
 L  c128
 L  c129
 L  c130
 L  c131
 L  c132
 L  c133
 L  c134
 L  c135
 L  c136
 L  c137
 L  c138
 L  c139
 L  c140
 L  c141
 L  c142
 L  c143
 L  c144
 L  c145
 L  c146
 L  c147
 L  c148
 L  c149
 L  c150
COLUMNS
    MARKER    'MARKER'                 'INTORG'
    x[1]      c11       1
    x[1]      c21       1
    x[1]      c27       1
    x[1]      c41       1
    x[1]      c106      1
    x[1]      c110      1
    x[1]      c118      1
    x[1]      c138      1
    x[1]      c139      1
    x[1]      OBJ       -1
    x[2]      c2        1
    x[2]      c4        1
    x[2]      c5        1
    x[2]      c6        1
    x[2]      c10       1
    x[2]      c15       1
    x[2]      c19       1
    x[2]      c20       1
    x[2]      c36       1
    x[2]      c44       1
    x[2]      c91       1
    x[2]      c101      1
    x[2]      c149      1
    x[2]      OBJ       -1
    x[3]      c34       1
    x[3]      c50       1
    x[3]      c70       1
    x[3]      c111      1
    x[3]      c116      1
    x[3]      c141      1
    x[3]      OBJ       -1
    x[4]      c1        1
    x[4]      c16       1
    x[4]      c21       1
    x[4]      c55       1
    x[4]      c86       1
    x[4]      c101      1
    x[4]      c130      1
    x[4]      c149      1
    x[4]      OBJ       -1
    x[5]      c4        1
    x[5]      c7        1
    x[5]      c15       1
    x[5]      c31       1
    x[5]      c78       1
    x[5]      c93       1
    x[5]      c105      1
    x[5]      c137      1
    x[5]      OBJ       -1
    x[6]      c37       1
    x[6]      c44       1
    x[6]      c52       1
    x[6]      c58       1
    x[6]      c71       1
    x[6]      c72       1
    x[6]      c100      1
    x[6]      OBJ       -1
    x[7]      c5        1
    x[7]      c91       1
    x[7]      c92       1
    x[7]      c96       1
    x[7]      c113      1
    x[7]      OBJ       -1
    x[8]      c32       1
    x[8]      c35       1
    x[8]      c44       1
    x[8]      c53       1
    x[8]      c54       1
    x[8]      c83       1
    x[8]      c111      1
    x[8]      c132      1
    x[8]      c138      1
    x[8]      c142      1
    x[8]      c149      1
    x[8]      OBJ       -1
    x[9]      c14       1
    x[9]      c28       1
    x[9]      c33       1
    x[9]      c34       1
    x[9]      c43       1
    x[9]      c62       1
    x[9]      c88       1
    x[9]      c89       1
    x[9]      c110      1
    x[9]      OBJ       -1
    x[10]     c29       1
    x[10]     c60       1
    x[10]     c68       1
    x[10]     c103      1
    x[10]     c107      1
    x[10]     c123      1
    x[10]     OBJ       -1
    x[11]     c33       1
    x[11]     c100      1
    x[11]     c138      1
    x[11]     OBJ       -1
    x[12]     c8        1
    x[12]     c28       1
    x[12]     c41       1
    x[12]     c49       1
    x[12]     c71       1
    x[12]     c89       1
    x[12]     OBJ       -1
    x[13]     c52       1
    x[13]     c62       1
    x[13]     c66       1
    x[13]     c68       1
    x[13]     c73       1
    x[13]     c94       1
    x[13]     c134      1
    x[13]     OBJ       -1
    x[14]     c16       1
    x[14]     c22       1
    x[14]     c30       1
    x[14]     c46       1
    x[14]     c89       1
    x[14]     c113      1
    x[14]     c126      1
    x[14]     c148      1
    x[14]     OBJ       -1
    x[15]     c15       1
    x[15]     c24       1
    x[15]     c27       1
    x[15]     c80       1
    x[15]     c87       1
    x[15]     c89       1
    x[15]     c90       1
    x[15]     c109      1
    x[15]     OBJ       -1
    x[16]     c96       1
    x[16]     c99       1
    x[16]     c101      1
    x[16]     c125      1
    x[16]     OBJ       -1
    x[17]     c18       1
    x[17]     c23       1
    x[17]     c45       1
    x[17]     c48       1
    x[17]     c63       1
    x[17]     c119      1
    x[17]     c129      1
    x[17]     c133      1
    x[17]     OBJ       -1
    x[18]     c9        1
    x[18]     c29       1
    x[18]     c35       1
    x[18]     c45       1
    x[18]     c80       1
    x[18]     c93       1
    x[18]     c99       1
    x[18]     c103      1
    x[18]     OBJ       -1
    x[19]     c1        1
    x[19]     c58       1
    x[19]     c61       1
    x[19]     c132      1
    x[19]     c141      1
    x[19]     OBJ       -1
    x[20]     c10       1
    x[20]     c11       1
    x[20]     c25       1
    x[20]     c64       1
    x[20]     c69       1
    x[20]     c102      1
    x[20]     c105      1
    x[20]     c119      1
    x[20]     c148      1
    x[20]     OBJ       -1
    x[21]     c25       1
    x[21]     c69       1
    x[21]     c75       1
    x[21]     c81       1
    x[21]     c148      1
    x[21]     OBJ       -1
    x[22]     c35       1
    x[22]     c42       1
    x[22]     c109      1
    x[22]     OBJ       -1
    x[23]     c106      1
    x[23]     OBJ       -1
    x[24]     c2        1
    x[24]     c39       1
    x[24]     c100      1
    x[24]     c116      1
    x[24]     c117      1
    x[24]     OBJ       -1
    x[25]     c8        1
    x[25]     c25       1
    x[25]     c91       1
    x[25]     c101      1
    x[25]     c134      1
    x[25]     OBJ       -1
    x[26]     c3        1
    x[26]     c8        1
    x[26]     c58       1
    x[26]     c77       1
    x[26]     c80       1
    x[26]     c113      1
    x[26]     c128      1
    x[26]     c131      1
    x[26]     OBJ       -1
    x[27]     c1        1
    x[27]     c63       1
    x[27]     c70       1
    x[27]     c74       1
    x[27]     c84       1
    x[27]     c88       1
    x[27]     c106      1
    x[27]     c127      1
    x[27]     c139      1
    x[27]     OBJ       -1
    x[28]     c17       1
    x[28]     c57       1
    x[28]     c67       1
    x[28]     c69       1
    x[28]     c71       1
    x[28]     c88       1
    x[28]     c119      1
    x[28]     OBJ       -1
    x[29]     c8        1
    x[29]     c80       1
    x[29]     c83       1
    x[29]     c122      1
    x[29]     c135      1
    x[29]     OBJ       -1
    x[30]     c10       1
    x[30]     c19       1
    x[30]     c94       1
    x[30]     OBJ       -1
RHS
    rhs       c1        1
    rhs       c2        1
    rhs       c3        1
    rhs       c4        1
    rhs       c5        1
    rhs       c6        1
    rhs       c7        1
    rhs       c8        1
    rhs       c9        1
    rhs       c10       1
    rhs       c11       1
    rhs       c12       1
    rhs       c13       1
    rhs       c14       1
    rhs       c15       1
    rhs       c16       1
    rhs       c17       1
    rhs       c18       1
    rhs       c19       1
    rhs       c20       1
    rhs       c21       1
    rhs       c22       1
    rhs       c23       1
    rhs       c24       1
    rhs       c25       1
    rhs       c26       1
    rhs       c27       1
    rhs       c28       1
    rhs       c29       1
    rhs       c30       1
    rhs       c31       1
    rhs       c32       1
    rhs       c33       1
    rhs       c34       1
    rhs       c35       1
    rhs       c36       1
    rhs       c37       1
    rhs       c38       1
    rhs       c39       1
    rhs       c40       1
    rhs       c41       1
    rhs       c42       1
    rhs       c43       1
    rhs       c44       1
    rhs       c45       1
    rhs       c46       1
    rhs       c47       1
    rhs       c48       1
    rhs       c49       1
    rhs       c50       1
    rhs       c51       1
    rhs       c52       1
    rhs       c53       1
    rhs       c54       1
    rhs       c55       1
    rhs       c56       1
    rhs       c57       1
    rhs       c58       1
    rhs       c59       1
    rhs       c60       1
    rhs       c61       1
    rhs       c62       1
    rhs       c63       1
    rhs       c64       1
    rhs       c65       1
    rhs       c66       1
    rhs       c67       1
    rhs       c68       1
    rhs       c69       1
    rhs       c70       1
    rhs       c71       1
    rhs       c72       1
    rhs       c73       1
    rhs       c74       1
    rhs       c75       1
    rhs       c76       1
    rhs       c77       1
    rhs       c78       1
    rhs       c79       1
    rhs       c80       1
    rhs       c81       1
    rhs       c82       1
    rhs       c83       1
    rhs       c84       1
    rhs       c85       1
    rhs       c86       1
    rhs       c87       1
    rhs       c88       1
    rhs       c89       1
    rhs       c90       1
    rhs       c91       1
    rhs       c92       1
    rhs       c93       1
    rhs       c94       1
    rhs       c95       1
    rhs       c96       1
    rhs       c97       1
    rhs       c98       1
    rhs       c99       1
    rhs       c100      1
    rhs       c101      1
    rhs       c102      1
    rhs       c103      1
    rhs       c104      1
    rhs       c105      1
    rhs       c106      1
    rhs       c107      1
    rhs       c108      1
    rhs       c109      1
    rhs       c110      1
    rhs       c111      1
    rhs       c112      1
    rhs       c113      1
    rhs       c114      1
    rhs       c115      1
    rhs       c116      1
    rhs       c117      1
    rhs       c118      1
    rhs       c119      1
    rhs       c120      1
    rhs       c121      1
    rhs       c122      1
    rhs       c123      1
    rhs       c124      1
    rhs       c125      1
    rhs       c126      1
    rhs       c127      1
    rhs       c128      1
    rhs       c129      1
    rhs       c130      1
    rhs       c131      1
    rhs       c132      1
    rhs       c133      1
    rhs       c134      1
    rhs       c135      1
    rhs       c136      1
    rhs       c137      1
    rhs       c138      1
    rhs       c139      1
    rhs       c140      1
    rhs       c141      1
    rhs       c142      1
    rhs       c143      1
    rhs       c144      1
    rhs       c145      1
    rhs       c146      1
    rhs       c147      1
    rhs       c148      1
    rhs       c149      1
    rhs       c150      1
RANGES
BOUNDS
 BV bounds    x[1]
 BV bounds    x[2]
 BV bounds    x[3]
 BV bounds    x[4]
 BV bounds    x[5]
 BV bounds    x[6]
 BV bounds    x[7]
 BV bounds    x[8]
 BV bounds    x[9]
 BV bounds    x[10]
 BV bounds    x[11]
 BV bounds    x[12]
 BV bounds    x[13]
 BV bounds    x[14]
 BV bounds    x[15]
 BV bounds    x[16]
 BV bounds    x[17]
 BV bounds    x[18]
 BV bounds    x[19]
 BV bounds    x[20]
 BV bounds    x[21]
 BV bounds    x[22]
 BV bounds    x[23]
 BV bounds    x[24]
 BV bounds    x[25]
 BV bounds    x[26]
 BV bounds    x[27]
 BV bounds    x[28]
 BV bounds    x[29]
 BV bounds    x[30]
ENDATA
